% Logging successfully configured
%%%mzn-stat: initTime=0.011322956
%%%mzn-stat: objective=735
%%%mzn-stat: nodes=503
%%%mzn-stat: restarts=0
%%%mzn-stat: peakDepth=174
%%%mzn-stat: solveTime=0.120002703
%%%mzn-stat: variables=442
%%%mzn-stat: propagators=274
%%%mzn-stat: failures=205
%%%mzn-stat: propagations=10052
%%%mzn-stat: nogoods=205
%%%mzn-stat: numAtomicConstraintsPropagated=0
%%%mzn-stat: circuitNumber1PropagationsTotal=1362
%%%mzn-stat: circuitNumber1CircuitConflicts=124
%%%mzn-stat: circuitNumber1AlldiffConflicts=11
%%%mzn-stat: circuitNumber1TotalFixedEdgesAtConflict=4724
%%%mzn-stat: circuitNumber1NumberOfConflicts=135
%%%mzn-stat: circuitNumber1GacPrunings=4037
%%%mzn-stat: circuitNumber1PropagationsThatGacPruned=739
%%%mzn-stat: circuitNumber1TotalPruningHallSetSize=26713
%%%mzn-stat: circuitNumber1NumberOfPruningExplanations=4037
%%%mzn-stat: circuitNumber1MaxPruningHallSetSize=46
%%%mzn-stat: circuitNumber1TotalSccSizeAtPruning=9509
%%%mzn-stat: circuitNumber1NumberOfSccPruningCalls=739
%%%mzn-stat: circuitNumber1TotalVarsInvolvedInPruning=3204
%%%mzn-stat: circuitNumber1MaxValuesPrunedFromSingleVar=5
%%%mzn-stat: circuitNumber1HallCircuitChecks=4698
%%%mzn-stat: circuitNumber1HallCircuitPrunings=3
%%%mzn-stat: circuitNumber1CircuitPreventPrunings=533
%%%mzn-stat: AverageConflictSize=13.892682926829268
%%%mzn-stat: NumUnitNogoodsLearned=0
%%%mzn-stat: AverageLearnedNogoodLength=18.98048780487805
%%%mzn-stat: AverageBacktrackAmount=0
%%%mzn-stat: AverageLbd=8.960975609756098
%%%mzn-stat: 2AutonomousSearchNumBackupCalled=155
%%%mzn-stat: 2AutonomousSearchNumPredicatesRemoved=0
%%%mzn-stat: 2AutonomousSearchNumCalls=156
%%%mzn-stat: 2AutonomousSearchNumPredicatesAdded=1604
%%%mzn-stat: 2AutonomousSearchAverageSizeOfHeap=10.282051282051283
%%%mzn-stat: 2AutonomousSearchNumAssignedPredicatesEncountered=1604
%%%mzn-stat-end
maxleg = 735;
succ = array1d(1..50,[16, 4, 18, 5, 15, 23, 34, 42, 29, 21, 26, 39, 40, 47, 6, 24, 8, 43, 30, 13, 50, 20, 37, 41, 2, 36, 11, 27, 46, 33, 38, 12, 1, 35, 44, 31, 10, 7, 19, 48, 9, 28, 25, 45, 22, 49, 32, 14, 3, 17]);
% time elapsed: 8.72 s
----------
%%%mzn-stat: initTime=0.011322956
%%%mzn-stat: objective=533
%%%mzn-stat: nodes=668
%%%mzn-stat: restarts=0
%%%mzn-stat: peakDepth=174
%%%mzn-stat: solveTime=0.124619671
%%%mzn-stat: variables=442
%%%mzn-stat: propagators=274
%%%mzn-stat: failures=206
%%%mzn-stat: propagations=10631
%%%mzn-stat: nogoods=206
%%%mzn-stat: numAtomicConstraintsPropagated=0
%%%mzn-stat: circuitNumber1PropagationsTotal=1416
%%%mzn-stat: circuitNumber1CircuitConflicts=124
%%%mzn-stat: circuitNumber1AlldiffConflicts=11
%%%mzn-stat: circuitNumber1TotalFixedEdgesAtConflict=4724
%%%mzn-stat: circuitNumber1NumberOfConflicts=135
%%%mzn-stat: circuitNumber1GacPrunings=4145
%%%mzn-stat: circuitNumber1PropagationsThatGacPruned=769
%%%mzn-stat: circuitNumber1TotalPruningHallSetSize=27616
%%%mzn-stat: circuitNumber1NumberOfPruningExplanations=4145
%%%mzn-stat: circuitNumber1MaxPruningHallSetSize=46
%%%mzn-stat: circuitNumber1TotalSccSizeAtPruning=9947
%%%mzn-stat: circuitNumber1NumberOfSccPruningCalls=769
%%%mzn-stat: circuitNumber1TotalVarsInvolvedInPruning=3293
%%%mzn-stat: circuitNumber1MaxValuesPrunedFromSingleVar=5
%%%mzn-stat: circuitNumber1HallCircuitChecks=4887
%%%mzn-stat: circuitNumber1HallCircuitPrunings=4
%%%mzn-stat: circuitNumber1CircuitPreventPrunings=555
%%%mzn-stat: AverageConflictSize=13.868932038834952
%%%mzn-stat: NumUnitNogoodsLearned=0
%%%mzn-stat: AverageLearnedNogoodLength=18.985436893203882
%%%mzn-stat: AverageBacktrackAmount=0
%%%mzn-stat: AverageLbd=8.975728155339805
%%%mzn-stat: 2AutonomousSearchNumBackupCalled=299
%%%mzn-stat: 2AutonomousSearchNumPredicatesRemoved=0
%%%mzn-stat: 2AutonomousSearchNumCalls=301
%%%mzn-stat: 2AutonomousSearchNumPredicatesAdded=1738
%%%mzn-stat: 2AutonomousSearchAverageSizeOfHeap=10.667774086378737
%%%mzn-stat: 2AutonomousSearchNumAssignedPredicatesEncountered=3211
%%%mzn-stat-end
maxleg = 533;
succ = array1d(1..50,[16, 4, 18, 5, 15, 23, 34, 42, 29, 21, 26, 39, 40, 47, 6, 24, 36, 50, 30, 13, 8, 20, 37, 41, 2, 31, 17, 27, 46, 33, 38, 12, 1, 35, 44, 11, 19, 7, 43, 48, 9, 28, 25, 45, 22, 49, 32, 14, 3, 10]);
% time elapsed: 8.72 s
----------
==========
% time elapsed: 9.14 s
%%%mzn-stat: initTime=0.011322956
%%%mzn-stat: objective=533
%%%mzn-stat: nodes=1716
%%%mzn-stat: restarts=0
%%%mzn-stat: peakDepth=174
%%%mzn-stat: solveTime=0.560407074
%%%mzn-stat: variables=442
%%%mzn-stat: propagators=274
%%%mzn-stat: failures=1060
%%%mzn-stat: propagations=37784
%%%mzn-stat: nogoods=1060
%%%mzn-stat: numAtomicConstraintsPropagated=0
%%%mzn-stat: circuitNumber1PropagationsTotal=6399
%%%mzn-stat: circuitNumber1CircuitConflicts=426
%%%mzn-stat: circuitNumber1AlldiffConflicts=14
%%%mzn-stat: circuitNumber1TotalFixedEdgesAtConflict=12114
%%%mzn-stat: circuitNumber1NumberOfConflicts=440
%%%mzn-stat: circuitNumber1GacPrunings=15912
%%%mzn-stat: circuitNumber1PropagationsThatGacPruned=3844
%%%mzn-stat: circuitNumber1TotalPruningHallSetSize=120298
%%%mzn-stat: circuitNumber1NumberOfPruningExplanations=15912
%%%mzn-stat: circuitNumber1MaxPruningHallSetSize=46
%%%mzn-stat: circuitNumber1TotalSccSizeAtPruning=62412
%%%mzn-stat: circuitNumber1NumberOfSccPruningCalls=3844
%%%mzn-stat: circuitNumber1TotalVarsInvolvedInPruning=13333
%%%mzn-stat: circuitNumber1MaxValuesPrunedFromSingleVar=5
%%%mzn-stat: circuitNumber1HallCircuitChecks=21112
%%%mzn-stat: circuitNumber1HallCircuitPrunings=513
%%%mzn-stat: circuitNumber1CircuitPreventPrunings=3091
%%%mzn-stat: AverageConflictSize=11.068867924528302
%%%mzn-stat: NumUnitNogoodsLearned=1
%%%mzn-stat: AverageLearnedNogoodLength=16.817924528301887
%%%mzn-stat: AverageBacktrackAmount=0
%%%mzn-stat: AverageLbd=6.380188679245283
%%%mzn-stat: 2AutonomousSearchNumBackupCalled=299
%%%mzn-stat: 2AutonomousSearchNumPredicatesRemoved=0
%%%mzn-stat: 2AutonomousSearchNumCalls=301
%%%mzn-stat: 2AutonomousSearchNumPredicatesAdded=4572
%%%mzn-stat: 2AutonomousSearchAverageSizeOfHeap=10.667774086378737
%%%mzn-stat: 2AutonomousSearchNumAssignedPredicatesEncountered=3211
%%%mzn-stat-end
